NAME : mar10_1000_4
COMMENT : Data set with 10 points
COMMENT : CIn-UFPE
COMMENT : Contributed by Marcelo Lacerda
TYPE : TSP
DIMENSION : 10
EDGE_WEIGHT_TYPE : EUC_2D
NODE_COORD_SECTION
1 930 832
2 841 504
3 828 315
4 405 394
5 472 525
6 283 361
7 326 990
8 970 354
9 675 896
10 118 811
EOF
